% demand
num_movements = 8;
loading_factor = [1100, 1650, 950, 1950, 1350, 1650, 1400, 1500];
pickup_time = [0, 0, 0, 0, 0, 2, 2, 2];
delivery_time = [4, 2, 2, 2, 4, 4, 4, 3];

% transporter definition
total_capacity = 7000;
num_decks = 3;
capacity = [3000, 1000, 3000];

% ways out of decks
num_ways_out = 1;
paths_out = array3d(decks, ways_out, decks, [
% ways out of deck d1
2, 3, 0, 

% ways out of deck d2
3, 0, 0, 

% ways out of deck d3
0, 0, 0,	

]);

